NAME : amz2071.105068_105068.tour
COMMENT : Cost = 105068_105068
COMMENT : Found by LKH-AMZ [Keld Helsgaun] Sun May 11 15:06:27 2025
COMMENT : TW viol.: 0 #: 0
TYPE : TOUR
DIMENSION : 116
TOUR_SECTION
101
8
48
24
75
80
95
15
47
10
51
45
25
79
115
11
14
81
98
67
49
106
85
107
3
63
60
76
41
100
35
103
70
112
110
90
84
52
1
109
65
91
23
89
7
69
116
16
96
5
74
42
17
6
111
114
92
37
36
44
86
54
12
99
68
50
83
22
29
97
34
40
32
9
78
61
28
18
77
72
104
4
43
105
33
113
31
53
20
55
108
71
26
56
66
62
102
46
64
30
88
21
94
57
2
39
58
73
93
27
82
19
38
59
87
13
-1
EOF
